benchmarks/bfuzz0/277321350176831819142749335106622891.smt2
(set-logic QF_FP)
(declare-const x0 (_ FloatingPoint 11 53))
(declare-const x1 (_ FloatingPoint 11 53))
(declare-const x2 (_ FloatingPoint 11 53))
(declare-const x3 (_ FloatingPoint 11 53))
(declare-const x4 (_ FloatingPoint 11 53))
(declare-const x5 (_ FloatingPoint 11 53))
(declare-const x6 (_ FloatingPoint 11 53))
(declare-const x7 (_ FloatingPoint 11 53))
(declare-const x8 (_ FloatingPoint 11 53))
(declare-const x9 (_ FloatingPoint 11 53))
(assert (fp.geq (fp.neg (fp.mul RNE x2 x2)) (fp.mul RNE (fp.neg x7) (fp.neg x1))))
(assert (fp.gt (fp.neg (fp.mul RNE x4 x2)) (fp.div RNE (fp.add RNE x1 x6) (fp.sub RNE x1 x7))))
(assert (fp.gt (fp.sub RNE (fp.add RNE x7 x2) (fp.add RNE x0 x4)) (fp.neg (fp.div RNE x1 x6))))
(assert (fp.eq (fp.div RNE (fp.neg x8) (fp.add RNE x4 x7)) (fp.div RNE (fp.add RNE x7 x8) (fp.mul RNE x0 x0))))
(assert (fp.geq (fp.neg (fp.sub RNE x2 x7)) (fp.mul RNE (fp.mul RNE x2 x6) (fp.sub RNE x3 x1))))
(assert (fp.leq (fp.div RNE (fp.sub RNE x6 x8) (fp.div RNE x7 x1)) (fp.add RNE (fp.sub RNE x4 x4) (fp.sub RNE x1 x2))))
(assert (fp.geq (fp.sub RNE (fp.add RNE x1 x0) (fp.add RNE x2 x1)) (fp.div RNE (fp.mul RNE x2 x9) (fp.neg x4))))
(assert (fp.lt (fp.add RNE (fp.neg x1) (fp.div RNE x2 x3)) (fp.neg (fp.add RNE x3 x1))))
(assert (fp.lt (fp.sub RNE (fp.mul RNE x5 x0) (fp.mul RNE x0 x2)) (fp.mul RNE (fp.neg x6) (fp.mul RNE x0 x3))))
(assert (fp.gt (fp.add RNE (fp.neg x2) (fp.add RNE x3 x0)) (fp.mul RNE (fp.div RNE x8 x4) (fp.mul RNE x6 x1))))
(assert (fp.lt (fp.add RNE (fp.add RNE x5 x2) (fp.mul RNE x2 x5)) (fp.div RNE (fp.add RNE x8 x7) (fp.sub RNE x5 x9))))
(assert (fp.gt (fp.div RNE (fp.add RNE x2 x9) (fp.mul RNE x9 x9)) (fp.neg (fp.mul RNE x4 x3))))
(check-sat)
