db/data/277321350176831819142749335106622891.z3.out
-------------------
2500.111217395
